rectOffsets = 
    [|0,0,3,3|0,0,3,3|0,0,3,5|0,0,5,3|0,0,5,3|0,0,3,5|0,0,5,5|0,0,5,5|];

shape = array1d(1..8, [{1}, {2}, {3}, {4}, {5}, {6}, {7}, {8}]);

validshapes = array1d(1..4, [{1,2}, {3,4}, {5,6}, {7,8}]);

dx = array1d(1..4, [3, 3, 5, 5]);

dy = array1d(1..4, [3, 5, 3, 5]);

w = 8;

n = 4;

o = 8;

